Pb Ti  O 
 1.0000000000000000
     3.9181545095715280    0.0000000000000000    0.0000000000000000
     0.0000000000000000    3.9181545095715280    0.0000000000000000
     0.0000000000000000    0.0000000000000000    3.9181545095715280
  Pb  Ti   O
   1   1   3
Cartesian
  0.0000000000000000  0.0000000000000000  0.0000000000000000
  1.9590772547857640  1.9590772547857640  1.9590772547857640
  1.9590772547857640  1.9590772547857640  0.0000000000000000
  0.0000000000000000  1.9590772547857640  1.9590772547857640
  1.9590772547857640  0.0000000000000000  1.9590772547857640
